;; Mutation-Based Equivalence Benchmark
;; Source:     AutomatArk / instance01789.smt2
;; Mutations:  intersect_no_spaces, literal_char_inc
;; Status:     sat
;;
;; Original regex vs mutated regex
;; Equivalence check: unsat ⟺ L(R1) = L(R2)

(set-info :smt-lib-version 2.6)
(set-info :category "mutation")
(set-info :status sat)
(set-logic QF_S)


;; R1: original
;; R2: mutated (intersect_no_spaces, literal_char_inc)
(assert
  (not
    (=
      (re.++ (str.to_re "http") (re.opt (str.to_re "s")) (str.to_re "://") (re.* (re.union (re.range "a" "z") (re.range "A" "Z") (re.range "0" "9") (str.to_re "/") (str.to_re "?") (str.to_re "-") (str.to_re ".") (str.to_re "&") (str.to_re "(") (str.to_re ")") (str.to_re "_") (str.to_re "=") (str.to_re "#"))) (str.to_re "\u{a}"))
      (re.++ (str.to_re "http") (re.opt (str.to_re "s")) (str.to_re ":/0") (re.inter (re.* (re.union (re.range "a" "z") (re.range "A" "Z") (re.range "0" "9") (str.to_re "/") (str.to_re "?") (str.to_re "-") (str.to_re ".") (str.to_re "&") (str.to_re "(") (str.to_re ")") (str.to_re "_") (str.to_re "=") (str.to_re "#"))) (re.comp (re.++ re.all (str.to_re " ") re.all))) (str.to_re "\u{a}")))))

(check-sat)
(exit)
